certificates/rado_a15_c172_N60.cnf
c Rad2 upper bound instance: x1 + 15*x2 - x3 = 172, interval [1,60]
p cnf 60 478
1 9 12 0
-1 -9 -12 0
1 13 24 0
-1 -13 -24 0
1 14 39 0
-1 -14 -39 0
1 15 54 0
-1 -15 -54 0
2 10 12 0
-2 -10 -12 0
2 13 25 0
-2 -13 -25 0
2 14 40 0
-2 -14 -40 0
2 15 55 0
-2 -15 -55 0
3 11 12 0
-3 -11 -12 0
3 13 26 0
-3 -13 -26 0
3 14 41 0
-3 -14 -41 0
3 15 56 0
-3 -15 -56 0
4 12 0
-4 -12 0
4 13 27 0
-4 -13 -27 0
4 14 42 0
-4 -14 -42 0
4 15 57 0
-4 -15 -57 0
5 12 13 0
-5 -12 -13 0
5 13 28 0
-5 -13 -28 0
5 14 43 0
-5 -14 -43 0
5 15 58 0
-5 -15 -58 0
6 12 14 0
-6 -12 -14 0
6 13 29 0
-6 -13 -29 0
6 14 44 0
-6 -14 -44 0
6 15 59 0
-6 -15 -59 0
7 12 15 0
-7 -12 -15 0
7 13 30 0
-7 -13 -30 0
7 14 45 0
-7 -14 -45 0
7 15 60 0
-7 -15 -60 0
1 8 11 0
-1 -8 -11 0
8 12 16 0
-8 -12 -16 0
8 13 31 0
-8 -13 -31 0
8 14 46 0
-8 -14 -46 0
2 9 11 0
-2 -9 -11 0
9 12 17 0
-9 -12 -17 0
9 13 32 0
-9 -13 -32 0
9 14 47 0
-9 -14 -47 0
3 10 11 0
-3 -10 -11 0
10 12 18 0
-10 -12 -18 0
10 13 33 0
-10 -13 -33 0
10 14 48 0
-10 -14 -48 0
4 11 0
-4 -11 0
11 12 19 0
-11 -12 -19 0
11 13 34 0
-11 -13 -34 0
11 14 49 0
-11 -14 -49 0
5 11 12 0
-5 -11 -12 0
12 20 0
-12 -20 0
12 13 35 0
-12 -13 -35 0
12 14 50 0
-12 -14 -50 0
6 11 13 0
-6 -11 -13 0
12 13 21 0
-12 -13 -21 0
13 36 0
-13 -36 0
13 14 51 0
-13 -14 -51 0
7 11 14 0
-7 -11 -14 0
12 14 22 0
-12 -14 -22 0
13 14 37 0
-13 -14 -37 0
14 52 0
-14 -52 0
8 11 15 0
-8 -11 -15 0
12 15 23 0
-12 -15 -23 0
13 15 38 0
-13 -15 -38 0
14 15 53 0
-14 -15 -53 0
9 11 16 0
-9 -11 -16 0
12 16 24 0
-12 -16 -24 0
13 16 39 0
-13 -16 -39 0
14 16 54 0
-14 -16 -54 0
10 11 17 0
-10 -11 -17 0
12 17 25 0
-12 -17 -25 0
13 17 40 0
-13 -17 -40 0
14 17 55 0
-14 -17 -55 0
11 18 0
-11 -18 0
12 18 26 0
-12 -18 -26 0
13 18 41 0
-13 -18 -41 0
14 18 56 0
-14 -18 -56 0
12 19 27 0
-12 -19 -27 0
13 19 42 0
-13 -19 -42 0
14 19 57 0
-14 -19 -57 0
11 13 20 0
-11 -13 -20 0
12 20 28 0
-12 -20 -28 0
13 20 43 0
-13 -20 -43 0
14 20 58 0
-14 -20 -58 0
11 14 21 0
-11 -14 -21 0
12 21 29 0
-12 -21 -29 0
13 21 44 0
-13 -21 -44 0
14 21 59 0
-14 -21 -59 0
11 15 22 0
-11 -15 -22 0
12 22 30 0
-12 -22 -30 0
13 22 45 0
-13 -22 -45 0
14 22 60 0
-14 -22 -60 0
1 10 23 0
-1 -10 -23 0
11 16 23 0
-11 -16 -23 0
12 23 31 0
-12 -23 -31 0
13 23 46 0
-13 -23 -46 0
2 10 24 0
-2 -10 -24 0
11 17 24 0
-11 -17 -24 0
12 24 32 0
-12 -24 -32 0
13 24 47 0
-13 -24 -47 0
3 10 25 0
-3 -10 -25 0
11 18 25 0
-11 -18 -25 0
12 25 33 0
-12 -25 -33 0
13 25 48 0
-13 -25 -48 0
4 10 26 0
-4 -10 -26 0
11 19 26 0
-11 -19 -26 0
12 26 34 0
-12 -26 -34 0
13 26 49 0
-13 -26 -49 0
5 10 27 0
-5 -10 -27 0
11 20 27 0
-11 -20 -27 0
12 27 35 0
-12 -27 -35 0
13 27 50 0
-13 -27 -50 0
6 10 28 0
-6 -10 -28 0
11 21 28 0
-11 -21 -28 0
12 28 36 0
-12 -28 -36 0
13 28 51 0
-13 -28 -51 0
7 10 29 0
-7 -10 -29 0
11 22 29 0
-11 -22 -29 0
12 29 37 0
-12 -29 -37 0
13 29 52 0
-13 -29 -52 0
8 10 30 0
-8 -10 -30 0
11 23 30 0
-11 -23 -30 0
12 30 38 0
-12 -30 -38 0
13 30 53 0
-13 -30 -53 0
9 10 31 0
-9 -10 -31 0
11 24 31 0
-11 -24 -31 0
12 31 39 0
-12 -31 -39 0
13 31 54 0
-13 -31 -54 0
10 32 0
-10 -32 0
11 25 32 0
-11 -25 -32 0
12 32 40 0
-12 -32 -40 0
13 32 55 0
-13 -32 -55 0
10 11 33 0
-10 -11 -33 0
11 26 33 0
-11 -26 -33 0
12 33 41 0
-12 -33 -41 0
13 33 56 0
-13 -33 -56 0
10 12 34 0
-10 -12 -34 0
11 27 34 0
-11 -27 -34 0
12 34 42 0
-12 -34 -42 0
13 34 57 0
-13 -34 -57 0
10 13 35 0
-10 -13 -35 0
11 28 35 0
-11 -28 -35 0
12 35 43 0
-12 -35 -43 0
13 35 58 0
-13 -35 -58 0
10 14 36 0
-10 -14 -36 0
11 29 36 0
-11 -29 -36 0
12 36 44 0
-12 -36 -44 0
13 36 59 0
-13 -36 -59 0
10 15 37 0
-10 -15 -37 0
11 30 37 0
-11 -30 -37 0
12 37 45 0
-12 -37 -45 0
13 37 60 0
-13 -37 -60 0
1 9 38 0
-1 -9 -38 0
10 16 38 0
-10 -16 -38 0
11 31 38 0
-11 -31 -38 0
12 38 46 0
-12 -38 -46 0
2 9 39 0
-2 -9 -39 0
10 17 39 0
-10 -17 -39 0
11 32 39 0
-11 -32 -39 0
12 39 47 0
-12 -39 -47 0
3 9 40 0
-3 -9 -40 0
10 18 40 0
-10 -18 -40 0
11 33 40 0
-11 -33 -40 0
12 40 48 0
-12 -40 -48 0
4 9 41 0
-4 -9 -41 0
10 19 41 0
-10 -19 -41 0
11 34 41 0
-11 -34 -41 0
12 41 49 0
-12 -41 -49 0
5 9 42 0
-5 -9 -42 0
10 20 42 0
-10 -20 -42 0
11 35 42 0
-11 -35 -42 0
12 42 50 0
-12 -42 -50 0
6 9 43 0
-6 -9 -43 0
10 21 43 0
-10 -21 -43 0
11 36 43 0
-11 -36 -43 0
12 43 51 0
-12 -43 -51 0
7 9 44 0
-7 -9 -44 0
10 22 44 0
-10 -22 -44 0
11 37 44 0
-11 -37 -44 0
12 44 52 0
-12 -44 -52 0
8 9 45 0
-8 -9 -45 0
10 23 45 0
-10 -23 -45 0
11 38 45 0
-11 -38 -45 0
12 45 53 0
-12 -45 -53 0
9 46 0
-9 -46 0
10 24 46 0
-10 -24 -46 0
11 39 46 0
-11 -39 -46 0
12 46 54 0
-12 -46 -54 0
9 10 47 0
-9 -10 -47 0
10 25 47 0
-10 -25 -47 0
11 40 47 0
-11 -40 -47 0
12 47 55 0
-12 -47 -55 0
9 11 48 0
-9 -11 -48 0
10 26 48 0
-10 -26 -48 0
11 41 48 0
-11 -41 -48 0
12 48 56 0
-12 -48 -56 0
9 12 49 0
-9 -12 -49 0
10 27 49 0
-10 -27 -49 0
11 42 49 0
-11 -42 -49 0
12 49 57 0
-12 -49 -57 0
9 13 50 0
-9 -13 -50 0
10 28 50 0
-10 -28 -50 0
11 43 50 0
-11 -43 -50 0
12 50 58 0
-12 -50 -58 0
9 14 51 0
-9 -14 -51 0
10 29 51 0
-10 -29 -51 0
11 44 51 0
-11 -44 -51 0
12 51 59 0
-12 -51 -59 0
9 15 52 0
-9 -15 -52 0
10 30 52 0
-10 -30 -52 0
11 45 52 0
-11 -45 -52 0
12 52 60 0
-12 -52 -60 0
1 8 53 0
-1 -8 -53 0
9 16 53 0
-9 -16 -53 0
10 31 53 0
-10 -31 -53 0
11 46 53 0
-11 -46 -53 0
2 8 54 0
-2 -8 -54 0
9 17 54 0
-9 -17 -54 0
10 32 54 0
-10 -32 -54 0
11 47 54 0
-11 -47 -54 0
3 8 55 0
-3 -8 -55 0
9 18 55 0
-9 -18 -55 0
10 33 55 0
-10 -33 -55 0
11 48 55 0
-11 -48 -55 0
4 8 56 0
-4 -8 -56 0
9 19 56 0
-9 -19 -56 0
10 34 56 0
-10 -34 -56 0
11 49 56 0
-11 -49 -56 0
5 8 57 0
-5 -8 -57 0
9 20 57 0
-9 -20 -57 0
10 35 57 0
-10 -35 -57 0
11 50 57 0
-11 -50 -57 0
6 8 58 0
-6 -8 -58 0
9 21 58 0
-9 -21 -58 0
10 36 58 0
-10 -36 -58 0
11 51 58 0
-11 -51 -58 0
7 8 59 0
-7 -8 -59 0
9 22 59 0
-9 -22 -59 0
10 37 59 0
-10 -37 -59 0
11 52 59 0
-11 -52 -59 0
8 60 0
-8 -60 0
9 23 60 0
-9 -23 -60 0
10 38 60 0
-10 -38 -60 0
11 53 60 0
-11 -53 -60 0
