certificates/rado_a15_c172_N60.drat
11 -57 8 0
-11 -59 -60 0
-59 -60 0
d -11 -59 -60 0
-60 0
8 0
15 5 0
-15 -57 0
d -15 -4 -57 0
-57 0
11 0
-4 0
-18 0
-1 0
-15 0
12 0
0
